 Code  2533
 Dimension, Fixed Cost
   100        3000
 Facility, Client, Transportation Cost
     1        4           0
     1       12           1
     1       30           1
     1       32           4
     1       38           4
     1       46           2
     1       71           1
     1       85           3
     1       89           2
     1       91           3
     2       17           1
     2       29           3
     2       47           2
     2       49           3
     2       84           3
     2       92           2
     2       93           2
     2       98           0
     2       99           1
     2      100           0
     3        4           4
     3       16           1
     3       24           2
     3       39           0
     3       46           2
     3       48           2
     3       53           4
     3       59           1
     3       78           0
     3       79           0
     4        3           3
     4        6           0
     4        8           3
     4       16           0
     4       18           0
     4       34           1
     4       37           0
     4       40           2
     4       47           4
     4       62           3
     5       19           0
     5       22           3
     5       40           2
     5       52           1
     5       54           0
     5       56           4
     5       61           1
     5       64           2
     5       66           2
     5       77           0
     6        4           4
     6       20           0
     6       37           4
     6       45           2
     6       69           2
     6       77           1
     6       78           3
     6       88           4
     6       92           2
     6       95           2
     7        1           0
     7       10           4
     7       31           2
     7       36           1
     7       41           3
     7       44           1
     7       47           2
     7       51           1
     7       54           2
     7       60           1
     8       24           4
     8       26           1
     8       30           0
     8       32           1
     8       48           0
     8       55           3
     8       57           0
     8       60           2
     8       62           4
     8       65           2
     9        1           0
     9        6           0
     9       14           3
     9       15           0
     9       19           4
     9       23           2
     9       42           4
     9       51           1
     9       79           4
     9       82           1
    10        2           2
    10        7           4
    10       33           2
    10       38           3
    10       41           0
    10       51           3
    10       64           4
    10       66           4
    10       80           2
    10       82           1
    11        6           2
    11        8           2
    11       25           3
    11       33           1
    11       43           4
    11       63           1
    11       64           2
    11       70           3
    11       71           3
    11       82           1
    12        6           3
    12       18           2
    12       19           0
    12       26           3
    12       30           4
    12       47           4
    12       51           4
    12       53           0
    12       58           3
    12       92           3
    13        7           1
    13       22           1
    13       26           2
    13       35           4
    13       50           4
    13       52           1
    13       67           2
    13       75           0
    13       77           4
    13       86           0
    14        3           1
    14       12           3
    14       51           1
    14       58           3
    14       66           4
    14       71           2
    14       76           0
    14       85           1
    14       88           1
    14       93           0
    15       20           3
    15       33           4
    15       37           2
    15       47           4
    15       59           3
    15       71           0
    15       72           3
    15       80           1
    15       92           3
    15       93           2
    16       12           1
    16       21           2
    16       46           4
    16       52           3
    16       59           3
    16       74           3
    16       81           0
    16       82           2
    16       90           3
    16       95           0
    17        1           2
    17        8           0
    17        9           2
    17       19           4
    17       43           2
    17       47           3
    17       55           1
    17       64           0
    17       68           2
    17       82           4
    18       12           2
    18       14           4
    18       17           4
    18       33           4
    18       46           0
    18       50           2
    18       75           2
    18       79           2
    18       82           2
    18       86           4
    19        7           1
    19       17           1
    19       35           3
    19       52           3
    19       86           4
    19       92           1
    19       93           3
    19       94           4
    19       95           2
    19       96           1
    20       17           0
    20       27           4
    20       31           1
    20       36           2
    20       73           1
    20       83           3
    20       89           3
    20       96           4
    20       98           2
    20      100           2
    21       27           1
    21       35           4
    21       40           3
    21       44           3
    21       54           3
    21       57           3
    21       58           3
    21       68           2
    21       70           1
    21       73           3
    22       32           2
    22       49           0
    22       57           0
    22       59           1
    22       62           4
    22       68           0
    22       72           2
    22       74           1
    22       78           0
    22       79           3
    23        4           4
    23       10           1
    23       17           2
    23       20           3
    23       23           4
    23       27           1
    23       29           3
    23       31           0
    23       42           2
    23       56           2
    24       32           4
    24       44           1
    24       49           2
    24       62           1
    24       80           1
    24       85           4
    24       93           3
    24       94           4
    24       97           0
    24       99           2
    25        5           4
    25       24           2
    25       35           0
    25       41           1
    25       42           0
    25       68           1
    25       69           2
    25       80           2
    25       84           0
    25       89           2
    26        7           0
    26       14           2
    26       15           1
    26       38           4
    26       57           0
    26       66           2
    26       70           1
    26       79           4
    26       83           2
    26       84           0
    27        2           2
    27       21           1
    27       24           3
    27       31           4
    27       35           2
    27       41           0
    27       49           1
    27       72           4
    27       73           1
    27       75           4
    28        2           3
    28       14           4
    28       16           0
    28       44           3
    28       47           3
    28       48           0
    28       91           1
    28       92           3
    28       95           0
    28       97           0
    29        4           1
    29        6           4
    29        8           4
    29       19           3
    29       20           2
    29       21           0
    29       23           1
    29       27           1
    29       28           1
    29       29           4
    30        1           0
    30       12           3
    30       23           3
    30       43           2
    30       54           0
    30       63           3
    30       64           3
    30       67           2
    30       75           1
    30       82           3
    31       10           1
    31       11           4
    31       13           2
    31       36           4
    31       53           3
    31       66           0
    31       75           0
    31       80           3
    31       81           4
    31       88           1
    32        9           0
    32       14           4
    32       29           3
    32       37           2
    32       51           1
    32       73           2
    32       76           0
    32       84           0
    32       87           2
    32       89           3
    33       12           0
    33       16           4
    33       21           3
    33       33           2
    33       44           4
    33       63           4
    33       70           3
    33       83           0
    33       85           4
    33       88           3
    34        1           4
    34       11           2
    34       31           0
    34       36           0
    34       46           1
    34       60           4
    34       74           0
    34       89           3
    34       92           2
    34       96           2
    35        2           0
    35        9           2
    35       22           3
    35       47           1
    35       57           0
    35       65           0
    35       74           4
    35       88           1
    35       91           4
    35       92           2
    36        3           0
    36        6           3
    36       42           2
    36       53           1
    36       54           1
    36       60           2
    36       61           1
    36       66           4
    36       69           1
    36       71           3
    37        9           1
    37       13           4
    37       30           4
    37       52           4
    37       65           4
    37       81           2
    37       84           3
    37       88           3
    37       97           4
    37       98           1
    38        3           2
    38        5           4
    38       25           4
    38       68           2
    38       83           4
    38       90           2
    38       95           1
    38       98           1
    38       99           0
    38      100           0
    39        6           2
    39       22           3
    39       25           2
    39       36           1
    39       59           1
    39       64           0
    39       65           3
    39       77           0
    39       82           1
    39       83           1
    40       18           1
    40       30           2
    40       34           3
    40       39           1
    40       42           0
    40       45           3
    40       57           0
    40       62           4
    40       70           2
    40       73           2
    41        1           3
    41        5           1
    41       14           4
    41       16           1
    41       20           4
    41       24           4
    41       34           1
    41       40           4
    41       86           0
    41      100           3
    42       22           3
    42       30           0
    42       52           1
    42       56           4
    42       64           0
    42       93           1
    42       94           2
    42       97           0
    42       99           4
    42      100           1
    43        1           4
    43        3           3
    43       10           0
    43       16           2
    43       49           0
    43       50           1
    43       63           0
    43       80           0
    43       82           2
    43       86           4
    44        2           2
    44       35           1
    44       52           4
    44       53           1
    44       54           3
    44       61           1
    44       66           4
    44       67           4
    44       76           2
    44       79           3
    45       27           2
    45       44           2
    45       83           0
    45       90           0
    45       95           0
    45       96           0
    45       97           2
    45       98           0
    45       99           4
    45      100           4
    46       13           0
    46       18           4
    46       34           1
    46       48           2
    46       56           4
    46       61           3
    46       65           1
    46       77           3
    46       78           3
    46       81           3
    47        2           2
    47       11           4
    47       15           3
    47       34           0
    47       39           1
    47       49           3
    47       53           3
    47       74           1
    47       80           1
    47       81           0
    48        7           3
    48        9           2
    48       13           2
    48       22           0
    48       26           2
    48       28           2
    48       29           1
    48       37           2
    48       48           1
    48       65           3
    49       11           1
    49       12           4
    49       22           2
    49       24           1
    49       25           0
    49       49           0
    49       50           1
    49       58           2
    49       67           3
    49       76           2
    50       19           4
    50       34           1
    50       38           4
    50       39           2
    50       50           2
    50       52           3
    50       54           0
    50       73           3
    50       75           1
    50       88           2
    51       31           1
    51       39           2
    51       40           1
    51       53           2
    51       58           2
    51       81           1
    51       86           0
    51       87           4
    51       88           1
    51       90           4
    52       18           2
    52       26           0
    52       28           1
    52       50           4
    52       84           4
    52       87           3
    52       89           2
    52       98           4
    52       99           0
    52      100           1
    53        4           1
    53       11           1
    53       17           4
    53       26           4
    53       31           0
    53       34           1
    53       43           3
    53       59           3
    53       64           0
    53       69           0
    54        1           3
    54        5           1
    54        9           2
    54       10           0
    54       11           2
    54       14           4
    54       21           4
    54       60           4
    54       64           2
    54       65           1
    55        9           0
    55       15           0
    55       23           4
    55       39           1
    55       40           0
    55       41           2
    55       43           1
    55       49           3
    55       53           0
    55       72           3
    56        5           2
    56       38           0
    56       58           4
    56       63           2
    56       66           4
    56       74           1
    56       80           0
    56       85           0
    56       94           3
    56       95           4
    57        5           3
    57       15           0
    57       19           1
    57       50           1
    57       56           1
    57       63           1
    57       65           3
    57       66           1
    57       69           4
    57       89           1
    58       10           1
    58       22           4
    58       29           2
    58       30           2
    58       32           0
    58       35           2
    58       37           4
    58       41           3
    58       45           4
    58       46           4
    59       11           3
    59       15           3
    59       19           4
    59       27           1
    59       37           1
    59       39           4
    59       54           2
    59       58           3
    59       61           4
    59       87           2
    60       20           1
    60       21           1
    60       44           0
    60       55           3
    60       75           4
    60       87           2
    60       91           1
    60       94           1
    60       95           2
    60       97           1
    61       13           4
    61       18           2
    61       25           2
    61       31           1
    61       45           2
    61       78           0
    61       80           4
    61       84           4
    61       85           2
    61       88           0
    62        4           0
    62        8           4
    62       12           0
    62       16           0
    62       69           4
    62       76           1
    62       88           3
    62       92           4
    62       95           1
    62       96           4
    63        1           4
    63        6           1
    63       15           0
    63       24           4
    63       48           1
    63       54           2
    63       56           3
    63       58           2
    63       65           0
    63       69           4
    64       41           0
    64       59           4
    64       67           3
    64       77           4
    64       81           3
    64       89           2
    64       95           1
    64       96           1
    64       97           3
    64       99           3
    65        7           1
    65       25           1
    65       32           0
    65       39           1
    65       50           3
    65       59           2
    65       67           4
    65       72           2
    65       77           4
    65       80           1
    66       14           3
    66       18           0
    66       29           1
    66       42           0
    66       59           0
    66       70           2
    66       71           0
    66       75           2
    66       81           0
    66       87           1
    67        7           2
    67       22           0
    67       35           2
    67       43           0
    67       55           0
    67       67           4
    67       69           3
    67       73           2
    67       74           3
    67       83           1
    68        3           2
    68       11           3
    68       18           2
    68       20           1
    68       23           0
    68       31           4
    68       34           2
    68       36           0
    68       47           2
    68       48           0
    69        5           4
    69        7           3
    69       10           1
    69       42           0
    69       45           1
    69       53           0
    69       55           2
    69       94           0
    69       97           2
    69       98           1
    70       13           2
    70       23           2
    70       32           4
    70       46           0
    70       51           2
    70       55           4
    70       67           4
    70       68           0
    70       79           3
    70       85           0
    71       13           0
    71       28           2
    71       30           2
    71       44           1
    71       45           1
    71       68           0
    71       79           0
    71       87           0
    71       90           1
    71       91           0
    72        2           3
    72        9           1
    72       18           0
    72       28           3
    72       74           1
    72       75           2
    72       78           4
    72       82           1
    72       87           3
    72       91           1
    73        6           0
    73       26           2
    73       28           4
    73       41           2
    73       48           0
    73       52           3
    73       57           4
    73       62           3
    73       70           0
    73       81           1
    74       19           3
    74       24           2
    74       38           2
    74       45           3
    74       55           1
    74       61           3
    74       65           1
    74       77           2
    74       78           4
    74       89           4
    75        2           3
    75       10           0
    75       15           4
    75       37           0
    75       58           1
    75       72           3
    75       79           3
    75       83           2
    75       90           4
    75       91           2
    76        3           4
    76        4           4
    76        7           4
    76       13           2
    76       26           1
    76       27           3
    76       30           2
    76       35           1
    76       56           3
    76       63           0
    77        8           4
    77       16           0
    77       25           0
    77       28           4
    77       61           4
    77       94           0
    77       96           3
    77       98           1
    77       99           2
    77      100           1
    78       16           1
    78       30           3
    78       32           4
    78       35           1
    78       36           4
    78       40           3
    78       45           3
    78       46           2
    78       57           2
    78       60           2
    79        5           4
    79        6           2
    79       25           4
    79       33           4
    79       51           2
    79       61           4
    79       63           1
    79       83           2
    79       90           2
    79       96           3
    80       10           2
    80       17           1
    80       20           0
    80       21           2
    80       28           1
    80       33           0
    80       38           3
    80       40           0
    80       45           0
    80       60           2
    81       23           3
    81       26           1
    81       36           4
    81       38           0
    81       54           1
    81       62           1
    81       72           0
    81       81           1
    81       85           2
    81       93           2
    82       15           3
    82       21           2
    82       27           0
    82       29           0
    82       32           0
    82       39           2
    82       50           0
    82       67           1
    82       73           4
    82       76           3
    83        3           3
    83        5           1
    83        8           2
    83       11           4
    83       21           0
    83       24           1
    83       37           4
    83       48           0
    83       59           1
    83       73           1
    84        4           0
    84       13           3
    84       34           4
    84       43           3
    84       70           0
    84       76           4
    84       84           3
    84       90           4
    84       96           1
    84       98           3
    85        1           2
    85        8           3
    85       17           1
    85       32           4
    85       46           0
    85       72           2
    85       78           1
    85       86           3
    85       93           3
    85       94           0
    86        8           4
    86       14           1
    86       24           0
    86       25           4
    86       33           0
    86       46           3
    86       60           4
    86       62           1
    86       71           3
    86       74           1
    87       16           1
    87       17           3
    87       26           1
    87       55           4
    87       60           0
    87       66           4
    87       72           3
    87       77           0
    87       79           4
    87       85           4
    88       20           4
    88       28           1
    88       41           0
    88       44           4
    88       48           3
    88       49           0
    88       52           2
    88       55           3
    88       87           3
    88       93           2
    89        2           1
    89        5           3
    89        7           3
    89       14           0
    89       25           1
    89       45           2
    89       56           2
    89       68           2
    89       70           4
    89       72           1
    90        9           2
    90       27           0
    90       43           3
    90       44           3
    90       56           1
    90       57           0
    90       68           0
    90       89           0
    90       91           2
    90       94           0
    91        3           1
    91       12           2
    91       19           4
    91       29           4
    91       33           0
    91       34           4
    91       47           1
    91       56           1
    91       64           1
    91       71           3
    92       20           1
    92       23           0
    92       27           3
    92       31           3
    92       38           4
    92       41           4
    92       53           0
    92       61           2
    92       78           1
    92       90           3
    93       18           0
    93       36           0
    93       37           1
    93       42           2
    93       43           1
    93       51           1
    93       63           4
    93       71           2
    93       75           1
    93       76           0
    94        4           0
    94       15           0
    94       49           0
    94       58           3
    94       62           4
    94       63           2
    94       69           0
    94       74           4
    94       83           3
    94       86           3
    95       29           1
    95       42           1
    95       51           1
    95       67           0
    95       68           3
    95       69           3
    95       73           0
    95       84           3
    95       87           3
    95       92           4
    96        3           1
    96        9           1
    96       10           1
    96       13           0
    96       17           2
    96       23           1
    96       42           2
    96       43           0
    96       50           4
    96       55           3
    97        2           2
    97       22           3
    97       60           1
    97       71           4
    97       76           3
    97       77           1
    97       86           0
    97       97           4
    97       99           0
    97      100           0
    98       28           0
    98       33           3
    98       36           3
    98       38           3
    98       40           0
    98       61           3
    98       70           1
    98       91           1
    98       93           4
    98       94           0
    99       12           0
    99       21           0
    99       39           3
    99       57           1
    99       86           3
    99       96           2
    99       97           3
    99       98           4
    99       99           2
    99      100           0
   100        8           1
   100       11           4
   100       40           2
   100       62           3
   100       76           0
   100       78           0
   100       84           1
   100       85           2
   100       90           2
   100       91           3
